Maximize
  - 2.3976793892376 edge_0_1_0_0 - 3.3114105971364 edge_0_2_0_0
   - 0.10742832234882 edge_0_4_0_0 - 4.790419053321 edge_0_5_0_0
   - 4.145231513368399 edge_0_6_0_0 - 2.1571367948772 edge_0_7_0_0
   - 0.9347175379039 edge_0_8_0_0 - 1.785361192299 edge_0_9_0_0
   - 3.78483 edge_0_10_0_0 - 2.5157890651605 edge_0_12_0_0
   - 2.9687787531124 edge_0_13_0_0 - 3.8036063850239 edge_0_14_0_0
   - 5.10117556782 edge_0_16_0_0 - 0.46640458212576 edge_0_17_0_0
   - 0.0259337013300435 edge_1_2_0_0 + 0.3725994260289079 edge_1_4_0_0
   - 0.0211248363129878 edge_1_6_0_0 - 0.0784109743888219 edge_1_7_0_0
   - 0.0209187072162318 edge_1_8_0_0 - 0.1675768263694975 edge_1_9_0_0
   - 0.4668923382893126 edge_1_10_0_0 - 0.2667750064048268 edge_1_12_0_0
   - 0.6449554055622223 edge_1_13_0_0 + 0.0190742303696482 edge_1_14_0_0
   + 0.053787846282625 edge_1_15_0_0 - 0.3218917850976817 edge_1_17_0_0
   - 0.270402995804715 edge_1_18_0_0 + 0.2886437057459914 edge_2_1_0_0
   + 0.6181550937927059 edge_2_3_0_0 + 0.4763471346748618 edge_2_4_0_0
   - 0.5868594284499962 edge_2_5_0_0 + 0.4070589183328739 edge_2_6_0_0
   + 0.1652237061460366 edge_2_7_0_0 - 0.1864871216373606 edge_2_8_0_0
   + 0.2263182072406256 edge_2_9_0_0 - 0.1461127590247868 edge_2_10_0_0
   - 0.4272610902655468 edge_2_12_0_0 - 0.4122026515212339 edge_2_13_0_0
   - 0.428150817033474 edge_2_14_0_0 - 0.400969458178654 edge_2_15_0_0
   - 0.67452524879765 edge_2_17_0_0 - 0.042274825072948 edge_2_18_0_0
   + 0.1740708533778681 edge_3_2_0_0 + 1.167430411555377 edge_3_4_0_0
   + 0.00100112238035086 edge_3_5_0_0 - 0.5047639413005213 edge_3_6_0_0
   + 0.1810414677194649 edge_3_7_0_0 - 0.7956335659846205 edge_3_8_0_0
   - 0.4336104663356002 edge_3_15_0_0 + 1.095406352492925 edge_4_1_0_0
   + 3.137052247332476 edge_4_2_0_0 + 3.999534901215454 edge_4_3_0_0
   + 0.8199141454424407 edge_4_5_0_0 + 1.0282798766064 edge_4_6_0_0
   + 1.694333960029835 edge_4_7_0_0 + 0.3186019718342087 edge_4_8_0_0
   + 0.7906647806037148 edge_4_9_0_0 + 0.6030846896766285 edge_4_10_0_0
   + 0.3446978162487764 edge_4_12_0_0 + 0.9198502473900338 edge_4_13_0_0
   + 0.9073455033885925 edge_4_14_0_0 + 0.2555170850880593 edge_4_15_0_0
   - 1.793599910082885 edge_4_16_0_0 + 0.8159749313684677 edge_4_17_0_0
   + 2.0265097568188 edge_4_18_0_0 - 0.3146460961810683 edge_5_2_0_0
   + 0.2620395959037715 edge_5_3_0_0 - 0.246860503856186 edge_5_4_0_0
   - 0.17620958313255 edge_5_6_0_0 + 0.7577202448096823 edge_5_7_0_0
   + 0.2414403706345976 edge_5_8_0_0 - 0.3034933150767223 edge_5_9_0_0
   - 0.4574324699384228 edge_5_14_0_0 - 0.2260580483322506 edge_5_15_0_0
   - 0.2831721634470904 edge_5_17_0_0 - 0.0151895972763756 edge_6_1_0_0
   + 0.6052907415863789 edge_6_2_0_0 + 0.8770194828908 edge_6_3_0_0
   - 0.00914563251484345 edge_6_4_0_0 + 1.314573699325505 edge_6_5_0_0
   + 1.37405 edge_6_7_0_0 + 0.5784410897753045 edge_6_8_0_0
   + 0.7529354842818383 edge_6_9_0_0 + 0.018808331490238 edge_6_10_0_0
   - 0.0157509074357331 edge_6_12_0_0 - 0.85659 edge_6_13_0_0
   + 1.4228861012814 edge_6_14_0_0 + 0.2218811330361513 edge_6_15_0_0
   - 0.1383116345734927 edge_6_17_0_0 + 0.496395 edge_6_18_0_0
   - 0.0447514854636072 edge_7_1_0_0 + 1.662874871365573 edge_7_2_0_0
   + 0.34135034726747 edge_7_3_0_0 + 0.43280594806328 edge_7_4_0_0
   + 3.106160724710313 edge_7_5_0_0 + 3.129869461252378 edge_7_6_0_0
   + 2.4802788749074 edge_7_8_0_0 + 1.28026 edge_7_9_0_0
   + 0.7138218324585697 edge_7_10_0_0 + 0.5796322007123335 edge_7_12_0_0
   + 2.22224 edge_7_13_0_0 + 1.8485749348908 edge_7_14_0_0
   + 1.367272145538822 edge_7_15_0_0 - 0.5835386907435299 edge_7_16_0_0
   + 1.12322 edge_7_17_0_0 + 3.12931 edge_7_18_0_0
   + 1.021698369938859 edge_8_1_0_0 + 0.2455742885371573 edge_8_2_0_0
   + 0.7329358015511201 edge_8_4_0_0 + 1.196522082904969 edge_8_5_0_0
   + 0.70180838610551 edge_8_6_0_0 + 1.1301039237845 edge_8_7_0_0
   + 1.5677460803863 edge_8_9_0_0 + 0.31465817086333 edge_8_10_0_0
   + 0.4302382330696427 edge_8_12_0_0 + 2.6539117956046 edge_8_13_0_0
   + 1.226656478039742 edge_8_14_0_0 + 1.804498151963966 edge_8_15_0_0
   - 0.9258586114322536 edge_8_16_0_0 + 1.070810296131478 edge_8_17_0_0
   + 1.9421408156906 edge_8_18_0_0 + 0.1087868646471182 edge_9_1_0_0
   + 0.6937094754679616 edge_9_2_0_0 + 0.4009224745162601 edge_9_4_0_0
   + 0.4674995341644605 edge_9_5_0_0 + 0.5266867309125253 edge_9_6_0_0
   + 1.11623448948107 edge_9_7_0_0 + 1.175818607414606 edge_9_8_0_0
   + 1.86435 edge_9_10_0_0 + 2.08884 edge_9_12_0_0 + 0.30588 edge_9_13_0_0
   + 0.8407349705352223 edge_9_14_0_0 + 0.6088865488871166 edge_9_15_0_0
   - 0.80395106855121 edge_9_16_0_0 + 0.3813513748306899 edge_9_17_0_0
   + 0.3350019480654537 edge_9_18_0_0 - 0.2673925804597665 edge_10_1_0_0
   + 0.2596037200684299 edge_10_2_0_0 - 0.2294887159097107 edge_10_4_0_0
   - 0.09805695433824 edge_10_5_0_0 + 0.2091239067101682 edge_10_6_0_0
   + 0.6058582793268777 edge_10_7_0_0 - 0.14307516658763 edge_10_8_0_0
   + 2.42825 edge_10_9_0_0 + 1.90241 edge_10_12_0_0
   + 1.098959406561655 edge_10_13_0_0 + 0.6676371306098347 edge_10_14_0_0
   - 0.1123679596492832 edge_10_15_0_0 - 1.0305034540347 edge_10_16_0_0
   + 0.2156913184133587 edge_10_17_0_0 + 0.5926255021942112 edge_10_18_0_0
   - 0.1037434961150733 edge_12_1_0_0 + 0.108917101905318 edge_12_2_0_0
   - 0.1426683627858183 edge_12_4_0_0 + 0.1161143422207058 edge_12_6_0_0
   + 0.1461969626090899 edge_12_7_0_0 + 0.0629503921518216 edge_12_8_0_0
   + 2.26039 edge_12_9_0_0 + 2.45723 edge_12_10_0_0
   + 1.030669134237382 edge_12_13_0_0 + 0.3104996201984547 edge_12_14_0_0
   - 0.096300681623594 edge_12_15_0_0 - 1.1096606609544 edge_12_16_0_0
   - 0.0397104626013747 edge_12_17_0_0 + 0.128830853132699 edge_12_18_0_0
   + 1.177021778534281 edge_13_1_0_0 + 1.199733540381844 edge_13_2_0_0
   + 1.004048423376781 edge_13_4_0_0 + 1.065391463568 edge_13_5_0_0
   + 1.10865 edge_13_6_0_0 + 0.6194976516218771 edge_13_7_0_0
   + 0.8541962114392854 edge_13_8_0_0 + 2.17809 edge_13_9_0_0
   + 2.68764 edge_13_10_0_0 + 3.17477 edge_13_12_0_0
   + 2.065134823519909 edge_13_14_0_0 + 1.38012400886806 edge_13_15_0_0
   - 0.29077800558825 edge_13_16_0_0 + 1.580716980824975 edge_13_17_0_0
   + 1.281446783562065 edge_13_18_0_0 - 0.7502440496999898 edge_14_1_0_0
   - 1.162978369061309 edge_14_4_0_0 - 1.176922990672895 edge_14_7_0_0
   - 0.5905345627708968 edge_14_8_0_0 - 0.614776622877233 edge_14_9_0_0
   - 0.9218556148192029 edge_14_10_0_0 - 0.7620782524102395 edge_14_12_0_0
   - 0.4789892744959903 edge_14_13_0_0 + 0.1219084583269989 edge_14_15_0_0
   + 0.0429919427579393 edge_14_17_0_0 + 0.0337740779186059 edge_14_18_0_0
   - 2.041989524314865 edge_15_4_0_0 - 0.8166778431662057 edge_15_9_0_0
   - 0.4278029512814049 edge_15_12_0_0 - 0.4326862146838735 edge_15_13_0_0
   + 0.8806208302919937 edge_15_14_0_0 + 0.1944952849770396 edge_15_16_0_0
   + 0.31389468280659 edge_15_17_0_0 + 0.87104343202284 edge_15_18_0_0
   - 1.023194512474244 edge_16_4_0_0 - 0.67437700980726 edge_16_7_0_0
   - 0.2733986656500816 edge_16_8_0_0 - 1.2428191403982 edge_16_13_0_0
   - 0.0758279168032861 edge_16_15_0_0 + 0.49562089967541 edge_16_18_0_0
   + 0.4853286579138388 edge_17_1_0_0 + 0.1731379018656583 edge_17_2_0_0
   + 0.3236287459778013 edge_17_4_0_0 + 0.80954938579665 edge_17_5_0_0
   + 0.168796 edge_17_6_0_0 + 0.5890640577244206 edge_17_7_0_0
   + 0.19550802881268 edge_17_8_0_0 + 1.03992 edge_17_9_0_0
   + 0.637374 edge_17_10_0_0 + 0.5768160042104565 edge_17_12_0_0
   + 0.884337 edge_17_13_0_0 + 1.277896498554 edge_17_14_0_0
   + 1.941925946811975 edge_17_15_0_0 + 3.479837602164 edge_17_16_0_0
   + 2.869489210686281 edge_17_18_0_0 - 1.163249162460046 edge_18_17_0_0
Subject To
 one_parent_1: edge_0_1_0_0 + edge_2_1_0_0 + edge_4_1_0_0 + edge_6_1_0_0
   + edge_7_1_0_0 + edge_8_1_0_0 + edge_9_1_0_0 + edge_10_1_0_0
   + edge_12_1_0_0 + edge_13_1_0_0 + edge_14_1_0_0 + edge_17_1_0_0 = 1
 consume_one_flow_unit_1: flow_0_1_0_0 - flow_1_2_0_0 - flow_1_4_0_0
   - flow_1_6_0_0 - flow_1_7_0_0 - flow_1_8_0_0 - flow_1_9_0_0
   - flow_1_10_0_0 - flow_1_12_0_0 - flow_1_13_0_0 - flow_1_14_0_0
   - flow_1_15_0_0 - flow_1_17_0_0 - flow_1_18_0_0 + flow_2_1_0_0
   + flow_4_1_0_0 + flow_6_1_0_0 + flow_7_1_0_0 + flow_8_1_0_0
   + flow_9_1_0_0 + flow_10_1_0_0 + flow_12_1_0_0 + flow_13_1_0_0
   + flow_14_1_0_0 + flow_17_1_0_0 = 1
 one_parent_2: edge_0_2_0_0 + edge_1_2_0_0 + edge_3_2_0_0 + edge_4_2_0_0
   + edge_5_2_0_0 + edge_6_2_0_0 + edge_7_2_0_0 + edge_8_2_0_0
   + edge_9_2_0_0 + edge_10_2_0_0 + edge_12_2_0_0 + edge_13_2_0_0
   + edge_17_2_0_0 = 1
 consume_one_flow_unit_2: flow_0_2_0_0 + flow_1_2_0_0 - flow_2_1_0_0
   - flow_2_3_0_0 - flow_2_4_0_0 - flow_2_5_0_0 - flow_2_6_0_0
   - flow_2_7_0_0 - flow_2_8_0_0 - flow_2_9_0_0 - flow_2_10_0_0
   - flow_2_12_0_0 - flow_2_13_0_0 - flow_2_14_0_0 - flow_2_15_0_0
   - flow_2_17_0_0 - flow_2_18_0_0 + flow_3_2_0_0 + flow_4_2_0_0
   + flow_5_2_0_0 + flow_6_2_0_0 + flow_7_2_0_0 + flow_8_2_0_0
   + flow_9_2_0_0 + flow_10_2_0_0 + flow_12_2_0_0 + flow_13_2_0_0
   + flow_17_2_0_0 = 1
 one_parent_3: edge_2_3_0_0 + edge_4_3_0_0 + edge_5_3_0_0 + edge_6_3_0_0
   + edge_7_3_0_0 = 1
 consume_one_flow_unit_3: flow_2_3_0_0 - flow_3_2_0_0 - flow_3_4_0_0
   - flow_3_5_0_0 - flow_3_6_0_0 - flow_3_7_0_0 - flow_3_8_0_0
   - flow_3_15_0_0 + flow_4_3_0_0 + flow_5_3_0_0 + flow_6_3_0_0
   + flow_7_3_0_0 = 1
 one_parent_4: edge_0_4_0_0 + edge_1_4_0_0 + edge_2_4_0_0 + edge_3_4_0_0
   + edge_5_4_0_0 + edge_6_4_0_0 + edge_7_4_0_0 + edge_8_4_0_0
   + edge_9_4_0_0 + edge_10_4_0_0 + edge_12_4_0_0 + edge_13_4_0_0
   + edge_14_4_0_0 + edge_15_4_0_0 + edge_16_4_0_0 + edge_17_4_0_0 = 1
 consume_one_flow_unit_4: flow_0_4_0_0 + flow_1_4_0_0 + flow_2_4_0_0
   + flow_3_4_0_0 - flow_4_1_0_0 - flow_4_2_0_0 - flow_4_3_0_0
   - flow_4_5_0_0 - flow_4_6_0_0 - flow_4_7_0_0 - flow_4_8_0_0
   - flow_4_9_0_0 - flow_4_10_0_0 - flow_4_12_0_0 - flow_4_13_0_0
   - flow_4_14_0_0 - flow_4_15_0_0 - flow_4_16_0_0 - flow_4_17_0_0
   - flow_4_18_0_0 + flow_5_4_0_0 + flow_6_4_0_0 + flow_7_4_0_0
   + flow_8_4_0_0 + flow_9_4_0_0 + flow_10_4_0_0 + flow_12_4_0_0
   + flow_13_4_0_0 + flow_14_4_0_0 + flow_15_4_0_0 + flow_16_4_0_0
   + flow_17_4_0_0 = 1
 one_parent_5: edge_0_5_0_0 + edge_2_5_0_0 + edge_3_5_0_0 + edge_4_5_0_0
   + edge_6_5_0_0 + edge_7_5_0_0 + edge_8_5_0_0 + edge_9_5_0_0
   + edge_10_5_0_0 + edge_13_5_0_0 + edge_17_5_0_0 = 1
 consume_one_flow_unit_5: flow_0_5_0_0 + flow_2_5_0_0 + flow_3_5_0_0
   + flow_4_5_0_0 - flow_5_2_0_0 - flow_5_3_0_0 - flow_5_4_0_0
   - flow_5_6_0_0 - flow_5_7_0_0 - flow_5_8_0_0 - flow_5_9_0_0
   - flow_5_14_0_0 - flow_5_15_0_0 - flow_5_17_0_0 + flow_6_5_0_0
   + flow_7_5_0_0 + flow_8_5_0_0 + flow_9_5_0_0 + flow_10_5_0_0
   + flow_13_5_0_0 + flow_17_5_0_0 = 1
 one_parent_6: edge_0_6_0_0 + edge_1_6_0_0 + edge_2_6_0_0 + edge_3_6_0_0
   + edge_4_6_0_0 + edge_5_6_0_0 + edge_7_6_0_0 + edge_8_6_0_0
   + edge_9_6_0_0 + edge_10_6_0_0 + edge_12_6_0_0 + edge_13_6_0_0
   + edge_17_6_0_0 = 1
 consume_one_flow_unit_6: flow_0_6_0_0 + flow_1_6_0_0 + flow_2_6_0_0
   + flow_3_6_0_0 + flow_4_6_0_0 + flow_5_6_0_0 - flow_6_1_0_0
   - flow_6_2_0_0 - flow_6_3_0_0 - flow_6_4_0_0 - flow_6_5_0_0
   - flow_6_7_0_0 - flow_6_8_0_0 - flow_6_9_0_0 - flow_6_10_0_0
   - flow_6_12_0_0 - flow_6_13_0_0 - flow_6_14_0_0 - flow_6_15_0_0
   - flow_6_17_0_0 - flow_6_18_0_0 + flow_7_6_0_0 + flow_8_6_0_0
   + flow_9_6_0_0 + flow_10_6_0_0 + flow_12_6_0_0 + flow_13_6_0_0
   + flow_17_6_0_0 = 1
 one_parent_7: edge_0_7_0_0 + edge_1_7_0_0 + edge_2_7_0_0 + edge_3_7_0_0
   + edge_4_7_0_0 + edge_5_7_0_0 + edge_6_7_0_0 + edge_8_7_0_0
   + edge_9_7_0_0 + edge_10_7_0_0 + edge_12_7_0_0 + edge_13_7_0_0
   + edge_14_7_0_0 + edge_16_7_0_0 + edge_17_7_0_0 = 1
 consume_one_flow_unit_7: flow_0_7_0_0 + flow_1_7_0_0 + flow_2_7_0_0
   + flow_3_7_0_0 + flow_4_7_0_0 + flow_5_7_0_0 + flow_6_7_0_0
   - flow_7_1_0_0 - flow_7_2_0_0 - flow_7_3_0_0 - flow_7_4_0_0
   - flow_7_5_0_0 - flow_7_6_0_0 - flow_7_8_0_0 - flow_7_9_0_0
   - flow_7_10_0_0 - flow_7_12_0_0 - flow_7_13_0_0 - flow_7_14_0_0
   - flow_7_15_0_0 - flow_7_16_0_0 - flow_7_17_0_0 - flow_7_18_0_0
   + flow_8_7_0_0 + flow_9_7_0_0 + flow_10_7_0_0 + flow_12_7_0_0
   + flow_13_7_0_0 + flow_14_7_0_0 + flow_16_7_0_0 + flow_17_7_0_0 = 1
 one_parent_8: edge_0_8_0_0 + edge_1_8_0_0 + edge_2_8_0_0 + edge_3_8_0_0
   + edge_4_8_0_0 + edge_5_8_0_0 + edge_6_8_0_0 + edge_7_8_0_0
   + edge_9_8_0_0 + edge_10_8_0_0 + edge_12_8_0_0 + edge_13_8_0_0
   + edge_14_8_0_0 + edge_16_8_0_0 + edge_17_8_0_0 = 1
 consume_one_flow_unit_8: flow_0_8_0_0 + flow_1_8_0_0 + flow_2_8_0_0
   + flow_3_8_0_0 + flow_4_8_0_0 + flow_5_8_0_0 + flow_6_8_0_0
   + flow_7_8_0_0 - flow_8_1_0_0 - flow_8_2_0_0 - flow_8_4_0_0
   - flow_8_5_0_0 - flow_8_6_0_0 - flow_8_7_0_0 - flow_8_9_0_0
   - flow_8_10_0_0 - flow_8_12_0_0 - flow_8_13_0_0 - flow_8_14_0_0
   - flow_8_15_0_0 - flow_8_16_0_0 - flow_8_17_0_0 - flow_8_18_0_0
   + flow_9_8_0_0 + flow_10_8_0_0 + flow_12_8_0_0 + flow_13_8_0_0
   + flow_14_8_0_0 + flow_16_8_0_0 + flow_17_8_0_0 = 1
 one_parent_9: edge_0_9_0_0 + edge_1_9_0_0 + edge_2_9_0_0 + edge_4_9_0_0
   + edge_5_9_0_0 + edge_6_9_0_0 + edge_7_9_0_0 + edge_8_9_0_0
   + edge_10_9_0_0 + edge_12_9_0_0 + edge_13_9_0_0 + edge_14_9_0_0
   + edge_15_9_0_0 + edge_17_9_0_0 = 1
 consume_one_flow_unit_9: flow_0_9_0_0 + flow_1_9_0_0 + flow_2_9_0_0
   + flow_4_9_0_0 + flow_5_9_0_0 + flow_6_9_0_0 + flow_7_9_0_0
   + flow_8_9_0_0 - flow_9_1_0_0 - flow_9_2_0_0 - flow_9_4_0_0
   - flow_9_5_0_0 - flow_9_6_0_0 - flow_9_7_0_0 - flow_9_8_0_0
   - flow_9_10_0_0 - flow_9_12_0_0 - flow_9_13_0_0 - flow_9_14_0_0
   - flow_9_15_0_0 - flow_9_16_0_0 - flow_9_17_0_0 - flow_9_18_0_0
   + flow_10_9_0_0 + flow_12_9_0_0 + flow_13_9_0_0 + flow_14_9_0_0
   + flow_15_9_0_0 + flow_17_9_0_0 = 1
 one_parent_10: edge_0_10_0_0 + edge_1_10_0_0 + edge_2_10_0_0
   + edge_4_10_0_0 + edge_6_10_0_0 + edge_7_10_0_0 + edge_8_10_0_0
   + edge_9_10_0_0 + edge_12_10_0_0 + edge_13_10_0_0 + edge_14_10_0_0
   + edge_17_10_0_0 = 1
 consume_one_flow_unit_10: flow_0_10_0_0 + flow_1_10_0_0 + flow_2_10_0_0
   + flow_4_10_0_0 + flow_6_10_0_0 + flow_7_10_0_0 + flow_8_10_0_0
   + flow_9_10_0_0 - flow_10_1_0_0 - flow_10_2_0_0 - flow_10_4_0_0
   - flow_10_5_0_0 - flow_10_6_0_0 - flow_10_7_0_0 - flow_10_8_0_0
   - flow_10_9_0_0 - flow_10_12_0_0 - flow_10_13_0_0 - flow_10_14_0_0
   - flow_10_15_0_0 - flow_10_16_0_0 - flow_10_17_0_0 - flow_10_18_0_0
   + flow_12_10_0_0 + flow_13_10_0_0 + flow_14_10_0_0 + flow_17_10_0_0 = 1
 one_parent_11: = 1
 consume_one_flow_unit_11: = 1
 one_parent_12: edge_0_12_0_0 + edge_1_12_0_0 + edge_2_12_0_0
   + edge_4_12_0_0 + edge_6_12_0_0 + edge_7_12_0_0 + edge_8_12_0_0
   + edge_9_12_0_0 + edge_10_12_0_0 + edge_13_12_0_0 + edge_14_12_0_0
   + edge_15_12_0_0 + edge_17_12_0_0 = 1
 consume_one_flow_unit_12: flow_0_12_0_0 + flow_1_12_0_0 + flow_2_12_0_0
   + flow_4_12_0_0 + flow_6_12_0_0 + flow_7_12_0_0 + flow_8_12_0_0
   + flow_9_12_0_0 + flow_10_12_0_0 - flow_12_1_0_0 - flow_12_2_0_0
   - flow_12_4_0_0 - flow_12_6_0_0 - flow_12_7_0_0 - flow_12_8_0_0
   - flow_12_9_0_0 - flow_12_10_0_0 - flow_12_13_0_0 - flow_12_14_0_0
   - flow_12_15_0_0 - flow_12_16_0_0 - flow_12_17_0_0 - flow_12_18_0_0
   + flow_13_12_0_0 + flow_14_12_0_0 + flow_15_12_0_0 + flow_17_12_0_0 = 1
 one_parent_13: edge_0_13_0_0 + edge_1_13_0_0 + edge_2_13_0_0
   + edge_4_13_0_0 + edge_6_13_0_0 + edge_7_13_0_0 + edge_8_13_0_0
   + edge_9_13_0_0 + edge_10_13_0_0 + edge_12_13_0_0 + edge_14_13_0_0
   + edge_15_13_0_0 + edge_16_13_0_0 + edge_17_13_0_0 = 1
 consume_one_flow_unit_13: flow_0_13_0_0 + flow_1_13_0_0 + flow_2_13_0_0
   + flow_4_13_0_0 + flow_6_13_0_0 + flow_7_13_0_0 + flow_8_13_0_0
   + flow_9_13_0_0 + flow_10_13_0_0 + flow_12_13_0_0 - flow_13_1_0_0
   - flow_13_2_0_0 - flow_13_4_0_0 - flow_13_5_0_0 - flow_13_6_0_0
   - flow_13_7_0_0 - flow_13_8_0_0 - flow_13_9_0_0 - flow_13_10_0_0
   - flow_13_12_0_0 - flow_13_14_0_0 - flow_13_15_0_0 - flow_13_16_0_0
   - flow_13_17_0_0 - flow_13_18_0_0 + flow_14_13_0_0 + flow_15_13_0_0
   + flow_16_13_0_0 + flow_17_13_0_0 = 1
 one_parent_14: edge_0_14_0_0 + edge_1_14_0_0 + edge_2_14_0_0
   + edge_4_14_0_0 + edge_5_14_0_0 + edge_6_14_0_0 + edge_7_14_0_0
   + edge_8_14_0_0 + edge_9_14_0_0 + edge_10_14_0_0 + edge_12_14_0_0
   + edge_13_14_0_0 + edge_15_14_0_0 + edge_17_14_0_0 = 1
 consume_one_flow_unit_14: flow_0_14_0_0 + flow_1_14_0_0 + flow_2_14_0_0
   + flow_4_14_0_0 + flow_5_14_0_0 + flow_6_14_0_0 + flow_7_14_0_0
   + flow_8_14_0_0 + flow_9_14_0_0 + flow_10_14_0_0 + flow_12_14_0_0
   + flow_13_14_0_0 - flow_14_1_0_0 - flow_14_4_0_0 - flow_14_7_0_0
   - flow_14_8_0_0 - flow_14_9_0_0 - flow_14_10_0_0 - flow_14_12_0_0
   - flow_14_13_0_0 - flow_14_15_0_0 - flow_14_17_0_0 - flow_14_18_0_0
   + flow_15_14_0_0 + flow_17_14_0_0 = 1
 one_parent_15: edge_1_15_0_0 + edge_2_15_0_0 + edge_3_15_0_0
   + edge_4_15_0_0 + edge_5_15_0_0 + edge_6_15_0_0 + edge_7_15_0_0
   + edge_8_15_0_0 + edge_9_15_0_0 + edge_10_15_0_0 + edge_12_15_0_0
   + edge_13_15_0_0 + edge_14_15_0_0 + edge_16_15_0_0 + edge_17_15_0_0 = 1
 consume_one_flow_unit_15: flow_1_15_0_0 + flow_2_15_0_0 + flow_3_15_0_0
   + flow_4_15_0_0 + flow_5_15_0_0 + flow_6_15_0_0 + flow_7_15_0_0
   + flow_8_15_0_0 + flow_9_15_0_0 + flow_10_15_0_0 + flow_12_15_0_0
   + flow_13_15_0_0 + flow_14_15_0_0 - flow_15_4_0_0 - flow_15_9_0_0
   - flow_15_12_0_0 - flow_15_13_0_0 - flow_15_14_0_0 - flow_15_16_0_0
   - flow_15_17_0_0 - flow_15_18_0_0 + flow_16_15_0_0 + flow_17_15_0_0 = 1
 one_parent_16: edge_0_16_0_0 + edge_4_16_0_0 + edge_7_16_0_0
   + edge_8_16_0_0 + edge_9_16_0_0 + edge_10_16_0_0 + edge_12_16_0_0
   + edge_13_16_0_0 + edge_15_16_0_0 + edge_17_16_0_0 = 1
 consume_one_flow_unit_16: flow_0_16_0_0 + flow_4_16_0_0 + flow_7_16_0_0
   + flow_8_16_0_0 + flow_9_16_0_0 + flow_10_16_0_0 + flow_12_16_0_0
   + flow_13_16_0_0 + flow_15_16_0_0 - flow_16_4_0_0 - flow_16_7_0_0
   - flow_16_8_0_0 - flow_16_13_0_0 - flow_16_15_0_0 - flow_16_18_0_0
   + flow_17_16_0_0 = 1
 one_parent_17: edge_0_17_0_0 + edge_1_17_0_0 + edge_2_17_0_0
   + edge_4_17_0_0 + edge_5_17_0_0 + edge_6_17_0_0 + edge_7_17_0_0
   + edge_8_17_0_0 + edge_9_17_0_0 + edge_10_17_0_0 + edge_12_17_0_0
   + edge_13_17_0_0 + edge_14_17_0_0 + edge_15_17_0_0 + edge_18_17_0_0 = 1
 consume_one_flow_unit_17: flow_0_17_0_0 + flow_1_17_0_0 + flow_2_17_0_0
   + flow_4_17_0_0 + flow_5_17_0_0 + flow_6_17_0_0 + flow_7_17_0_0
   + flow_8_17_0_0 + flow_9_17_0_0 + flow_10_17_0_0 + flow_12_17_0_0
   + flow_13_17_0_0 + flow_14_17_0_0 + flow_15_17_0_0 - flow_17_1_0_0
   - flow_17_2_0_0 - flow_17_4_0_0 - flow_17_5_0_0 - flow_17_6_0_0
   - flow_17_7_0_0 - flow_17_8_0_0 - flow_17_9_0_0 - flow_17_10_0_0
   - flow_17_12_0_0 - flow_17_13_0_0 - flow_17_14_0_0 - flow_17_15_0_0
   - flow_17_16_0_0 - flow_17_18_0_0 + flow_18_17_0_0 = 1
 one_parent_18: edge_1_18_0_0 + edge_2_18_0_0 + edge_4_18_0_0
   + edge_6_18_0_0 + edge_7_18_0_0 + edge_8_18_0_0 + edge_9_18_0_0
   + edge_10_18_0_0 + edge_12_18_0_0 + edge_13_18_0_0 + edge_14_18_0_0
   + edge_15_18_0_0 + edge_16_18_0_0 + edge_17_18_0_0 = 1
 consume_one_flow_unit_18: flow_1_18_0_0 + flow_2_18_0_0 + flow_4_18_0_0
   + flow_6_18_0_0 + flow_7_18_0_0 + flow_8_18_0_0 + flow_9_18_0_0
   + flow_10_18_0_0 + flow_12_18_0_0 + flow_13_18_0_0 + flow_14_18_0_0
   + flow_15_18_0_0 + flow_16_18_0_0 + flow_17_18_0_0 - flow_18_17_0_0 = 1
 root_flow: flow_0_1_0_0 + flow_0_2_0_0 + flow_0_4_0_0 + flow_0_5_0_0
   + flow_0_6_0_0 + flow_0_7_0_0 + flow_0_8_0_0 + flow_0_9_0_0
   + flow_0_10_0_0 + flow_0_12_0_0 + flow_0_13_0_0 + flow_0_14_0_0
   + flow_0_16_0_0 + flow_0_17_0_0 = 18
 inactive_no_flow_0_1_0_0: flow_0_1_0_0 - 1000 edge_0_1_0_0 <= 0
 inactive_no_flow_0_2_0_0: flow_0_2_0_0 - 1000 edge_0_2_0_0 <= 0
 inactive_no_flow_0_4_0_0: flow_0_4_0_0 - 1000 edge_0_4_0_0 <= 0
 inactive_no_flow_0_5_0_0: flow_0_5_0_0 - 1000 edge_0_5_0_0 <= 0
 inactive_no_flow_0_6_0_0: flow_0_6_0_0 - 1000 edge_0_6_0_0 <= 0
 inactive_no_flow_0_7_0_0: flow_0_7_0_0 - 1000 edge_0_7_0_0 <= 0
 inactive_no_flow_0_8_0_0: flow_0_8_0_0 - 1000 edge_0_8_0_0 <= 0
 inactive_no_flow_0_9_0_0: flow_0_9_0_0 - 1000 edge_0_9_0_0 <= 0
 inactive_no_flow_0_10_0_0: flow_0_10_0_0 - 1000 edge_0_10_0_0 <= 0
 inactive_no_flow_0_12_0_0: flow_0_12_0_0 - 1000 edge_0_12_0_0 <= 0
 inactive_no_flow_0_13_0_0: flow_0_13_0_0 - 1000 edge_0_13_0_0 <= 0
 inactive_no_flow_0_14_0_0: flow_0_14_0_0 - 1000 edge_0_14_0_0 <= 0
 inactive_no_flow_0_16_0_0: flow_0_16_0_0 - 1000 edge_0_16_0_0 <= 0
 inactive_no_flow_0_17_0_0: flow_0_17_0_0 - 1000 edge_0_17_0_0 <= 0
 inactive_no_flow_1_2_0_0: flow_1_2_0_0 - 1000 edge_1_2_0_0 <= 0
 inactive_no_flow_1_4_0_0: flow_1_4_0_0 - 1000 edge_1_4_0_0 <= 0
 inactive_no_flow_1_6_0_0: flow_1_6_0_0 - 1000 edge_1_6_0_0 <= 0
 inactive_no_flow_1_7_0_0: flow_1_7_0_0 - 1000 edge_1_7_0_0 <= 0
 inactive_no_flow_1_8_0_0: flow_1_8_0_0 - 1000 edge_1_8_0_0 <= 0
 inactive_no_flow_1_9_0_0: flow_1_9_0_0 - 1000 edge_1_9_0_0 <= 0
 inactive_no_flow_1_10_0_0: flow_1_10_0_0 - 1000 edge_1_10_0_0 <= 0
 inactive_no_flow_1_12_0_0: flow_1_12_0_0 - 1000 edge_1_12_0_0 <= 0
 inactive_no_flow_1_13_0_0: flow_1_13_0_0 - 1000 edge_1_13_0_0 <= 0
 inactive_no_flow_1_14_0_0: flow_1_14_0_0 - 1000 edge_1_14_0_0 <= 0
 inactive_no_flow_1_15_0_0: flow_1_15_0_0 - 1000 edge_1_15_0_0 <= 0
 inactive_no_flow_1_17_0_0: flow_1_17_0_0 - 1000 edge_1_17_0_0 <= 0
 inactive_no_flow_1_18_0_0: flow_1_18_0_0 - 1000 edge_1_18_0_0 <= 0
 inactive_no_flow_2_1_0_0: flow_2_1_0_0 - 1000 edge_2_1_0_0 <= 0
 inactive_no_flow_2_3_0_0: flow_2_3_0_0 - 1000 edge_2_3_0_0 <= 0
 inactive_no_flow_2_4_0_0: flow_2_4_0_0 - 1000 edge_2_4_0_0 <= 0
 inactive_no_flow_2_5_0_0: flow_2_5_0_0 - 1000 edge_2_5_0_0 <= 0
 inactive_no_flow_2_6_0_0: flow_2_6_0_0 - 1000 edge_2_6_0_0 <= 0
 inactive_no_flow_2_7_0_0: flow_2_7_0_0 - 1000 edge_2_7_0_0 <= 0
 inactive_no_flow_2_8_0_0: flow_2_8_0_0 - 1000 edge_2_8_0_0 <= 0
 inactive_no_flow_2_9_0_0: flow_2_9_0_0 - 1000 edge_2_9_0_0 <= 0
 inactive_no_flow_2_10_0_0: flow_2_10_0_0 - 1000 edge_2_10_0_0 <= 0
 inactive_no_flow_2_12_0_0: flow_2_12_0_0 - 1000 edge_2_12_0_0 <= 0
 inactive_no_flow_2_13_0_0: flow_2_13_0_0 - 1000 edge_2_13_0_0 <= 0
 inactive_no_flow_2_14_0_0: flow_2_14_0_0 - 1000 edge_2_14_0_0 <= 0
 inactive_no_flow_2_15_0_0: flow_2_15_0_0 - 1000 edge_2_15_0_0 <= 0
 inactive_no_flow_2_17_0_0: flow_2_17_0_0 - 1000 edge_2_17_0_0 <= 0
 inactive_no_flow_2_18_0_0: flow_2_18_0_0 - 1000 edge_2_18_0_0 <= 0
 inactive_no_flow_3_2_0_0: flow_3_2_0_0 - 1000 edge_3_2_0_0 <= 0
 inactive_no_flow_3_4_0_0: flow_3_4_0_0 - 1000 edge_3_4_0_0 <= 0
 inactive_no_flow_3_5_0_0: flow_3_5_0_0 - 1000 edge_3_5_0_0 <= 0
 inactive_no_flow_3_6_0_0: flow_3_6_0_0 - 1000 edge_3_6_0_0 <= 0
 inactive_no_flow_3_7_0_0: flow_3_7_0_0 - 1000 edge_3_7_0_0 <= 0
 inactive_no_flow_3_8_0_0: flow_3_8_0_0 - 1000 edge_3_8_0_0 <= 0
 inactive_no_flow_3_15_0_0: flow_3_15_0_0 - 1000 edge_3_15_0_0 <= 0
 inactive_no_flow_4_1_0_0: flow_4_1_0_0 - 1000 edge_4_1_0_0 <= 0
 inactive_no_flow_4_2_0_0: flow_4_2_0_0 - 1000 edge_4_2_0_0 <= 0
 inactive_no_flow_4_3_0_0: flow_4_3_0_0 - 1000 edge_4_3_0_0 <= 0
 inactive_no_flow_4_5_0_0: flow_4_5_0_0 - 1000 edge_4_5_0_0 <= 0
 inactive_no_flow_4_6_0_0: flow_4_6_0_0 - 1000 edge_4_6_0_0 <= 0
 inactive_no_flow_4_7_0_0: flow_4_7_0_0 - 1000 edge_4_7_0_0 <= 0
 inactive_no_flow_4_8_0_0: flow_4_8_0_0 - 1000 edge_4_8_0_0 <= 0
 inactive_no_flow_4_9_0_0: flow_4_9_0_0 - 1000 edge_4_9_0_0 <= 0
 inactive_no_flow_4_10_0_0: flow_4_10_0_0 - 1000 edge_4_10_0_0 <= 0
 inactive_no_flow_4_12_0_0: flow_4_12_0_0 - 1000 edge_4_12_0_0 <= 0
 inactive_no_flow_4_13_0_0: flow_4_13_0_0 - 1000 edge_4_13_0_0 <= 0
 inactive_no_flow_4_14_0_0: flow_4_14_0_0 - 1000 edge_4_14_0_0 <= 0
 inactive_no_flow_4_15_0_0: flow_4_15_0_0 - 1000 edge_4_15_0_0 <= 0
 inactive_no_flow_4_16_0_0: flow_4_16_0_0 - 1000 edge_4_16_0_0 <= 0
 inactive_no_flow_4_17_0_0: flow_4_17_0_0 - 1000 edge_4_17_0_0 <= 0
 inactive_no_flow_4_18_0_0: flow_4_18_0_0 - 1000 edge_4_18_0_0 <= 0
 inactive_no_flow_5_2_0_0: flow_5_2_0_0 - 1000 edge_5_2_0_0 <= 0
 inactive_no_flow_5_3_0_0: flow_5_3_0_0 - 1000 edge_5_3_0_0 <= 0
 inactive_no_flow_5_4_0_0: flow_5_4_0_0 - 1000 edge_5_4_0_0 <= 0
 inactive_no_flow_5_6_0_0: flow_5_6_0_0 - 1000 edge_5_6_0_0 <= 0
 inactive_no_flow_5_7_0_0: flow_5_7_0_0 - 1000 edge_5_7_0_0 <= 0
 inactive_no_flow_5_8_0_0: flow_5_8_0_0 - 1000 edge_5_8_0_0 <= 0
 inactive_no_flow_5_9_0_0: flow_5_9_0_0 - 1000 edge_5_9_0_0 <= 0
 inactive_no_flow_5_14_0_0: flow_5_14_0_0 - 1000 edge_5_14_0_0 <= 0
 inactive_no_flow_5_15_0_0: flow_5_15_0_0 - 1000 edge_5_15_0_0 <= 0
 inactive_no_flow_5_17_0_0: flow_5_17_0_0 - 1000 edge_5_17_0_0 <= 0
 inactive_no_flow_6_1_0_0: flow_6_1_0_0 - 1000 edge_6_1_0_0 <= 0
 inactive_no_flow_6_2_0_0: flow_6_2_0_0 - 1000 edge_6_2_0_0 <= 0
 inactive_no_flow_6_3_0_0: flow_6_3_0_0 - 1000 edge_6_3_0_0 <= 0
 inactive_no_flow_6_4_0_0: flow_6_4_0_0 - 1000 edge_6_4_0_0 <= 0
 inactive_no_flow_6_5_0_0: flow_6_5_0_0 - 1000 edge_6_5_0_0 <= 0
 inactive_no_flow_6_7_0_0: flow_6_7_0_0 - 1000 edge_6_7_0_0 <= 0
 inactive_no_flow_6_8_0_0: flow_6_8_0_0 - 1000 edge_6_8_0_0 <= 0
 inactive_no_flow_6_9_0_0: flow_6_9_0_0 - 1000 edge_6_9_0_0 <= 0
 inactive_no_flow_6_10_0_0: flow_6_10_0_0 - 1000 edge_6_10_0_0 <= 0
 inactive_no_flow_6_12_0_0: flow_6_12_0_0 - 1000 edge_6_12_0_0 <= 0
 inactive_no_flow_6_13_0_0: flow_6_13_0_0 - 1000 edge_6_13_0_0 <= 0
 inactive_no_flow_6_14_0_0: flow_6_14_0_0 - 1000 edge_6_14_0_0 <= 0
 inactive_no_flow_6_15_0_0: flow_6_15_0_0 - 1000 edge_6_15_0_0 <= 0
 inactive_no_flow_6_17_0_0: flow_6_17_0_0 - 1000 edge_6_17_0_0 <= 0
 inactive_no_flow_6_18_0_0: flow_6_18_0_0 - 1000 edge_6_18_0_0 <= 0
 inactive_no_flow_7_1_0_0: flow_7_1_0_0 - 1000 edge_7_1_0_0 <= 0
 inactive_no_flow_7_2_0_0: flow_7_2_0_0 - 1000 edge_7_2_0_0 <= 0
 inactive_no_flow_7_3_0_0: flow_7_3_0_0 - 1000 edge_7_3_0_0 <= 0
 inactive_no_flow_7_4_0_0: flow_7_4_0_0 - 1000 edge_7_4_0_0 <= 0
 inactive_no_flow_7_5_0_0: flow_7_5_0_0 - 1000 edge_7_5_0_0 <= 0
 inactive_no_flow_7_6_0_0: flow_7_6_0_0 - 1000 edge_7_6_0_0 <= 0
 inactive_no_flow_7_8_0_0: flow_7_8_0_0 - 1000 edge_7_8_0_0 <= 0
 inactive_no_flow_7_9_0_0: flow_7_9_0_0 - 1000 edge_7_9_0_0 <= 0
 inactive_no_flow_7_10_0_0: flow_7_10_0_0 - 1000 edge_7_10_0_0 <= 0
 inactive_no_flow_7_12_0_0: flow_7_12_0_0 - 1000 edge_7_12_0_0 <= 0
 inactive_no_flow_7_13_0_0: flow_7_13_0_0 - 1000 edge_7_13_0_0 <= 0
 inactive_no_flow_7_14_0_0: flow_7_14_0_0 - 1000 edge_7_14_0_0 <= 0
 inactive_no_flow_7_15_0_0: flow_7_15_0_0 - 1000 edge_7_15_0_0 <= 0
 inactive_no_flow_7_16_0_0: flow_7_16_0_0 - 1000 edge_7_16_0_0 <= 0
 inactive_no_flow_7_17_0_0: flow_7_17_0_0 - 1000 edge_7_17_0_0 <= 0
 inactive_no_flow_7_18_0_0: flow_7_18_0_0 - 1000 edge_7_18_0_0 <= 0
 inactive_no_flow_8_1_0_0: flow_8_1_0_0 - 1000 edge_8_1_0_0 <= 0
 inactive_no_flow_8_2_0_0: flow_8_2_0_0 - 1000 edge_8_2_0_0 <= 0
 inactive_no_flow_8_4_0_0: flow_8_4_0_0 - 1000 edge_8_4_0_0 <= 0
 inactive_no_flow_8_5_0_0: flow_8_5_0_0 - 1000 edge_8_5_0_0 <= 0
 inactive_no_flow_8_6_0_0: flow_8_6_0_0 - 1000 edge_8_6_0_0 <= 0
 inactive_no_flow_8_7_0_0: flow_8_7_0_0 - 1000 edge_8_7_0_0 <= 0
 inactive_no_flow_8_9_0_0: flow_8_9_0_0 - 1000 edge_8_9_0_0 <= 0
 inactive_no_flow_8_10_0_0: flow_8_10_0_0 - 1000 edge_8_10_0_0 <= 0
 inactive_no_flow_8_12_0_0: flow_8_12_0_0 - 1000 edge_8_12_0_0 <= 0
 inactive_no_flow_8_13_0_0: flow_8_13_0_0 - 1000 edge_8_13_0_0 <= 0
 inactive_no_flow_8_14_0_0: flow_8_14_0_0 - 1000 edge_8_14_0_0 <= 0
 inactive_no_flow_8_15_0_0: flow_8_15_0_0 - 1000 edge_8_15_0_0 <= 0
 inactive_no_flow_8_16_0_0: flow_8_16_0_0 - 1000 edge_8_16_0_0 <= 0
 inactive_no_flow_8_17_0_0: flow_8_17_0_0 - 1000 edge_8_17_0_0 <= 0
 inactive_no_flow_8_18_0_0: flow_8_18_0_0 - 1000 edge_8_18_0_0 <= 0
 inactive_no_flow_9_1_0_0: flow_9_1_0_0 - 1000 edge_9_1_0_0 <= 0
 inactive_no_flow_9_2_0_0: flow_9_2_0_0 - 1000 edge_9_2_0_0 <= 0
 inactive_no_flow_9_4_0_0: flow_9_4_0_0 - 1000 edge_9_4_0_0 <= 0
 inactive_no_flow_9_5_0_0: flow_9_5_0_0 - 1000 edge_9_5_0_0 <= 0
 inactive_no_flow_9_6_0_0: flow_9_6_0_0 - 1000 edge_9_6_0_0 <= 0
 inactive_no_flow_9_7_0_0: flow_9_7_0_0 - 1000 edge_9_7_0_0 <= 0
 inactive_no_flow_9_8_0_0: flow_9_8_0_0 - 1000 edge_9_8_0_0 <= 0
 inactive_no_flow_9_10_0_0: flow_9_10_0_0 - 1000 edge_9_10_0_0 <= 0
 inactive_no_flow_9_12_0_0: flow_9_12_0_0 - 1000 edge_9_12_0_0 <= 0
 inactive_no_flow_9_13_0_0: flow_9_13_0_0 - 1000 edge_9_13_0_0 <= 0
 inactive_no_flow_9_14_0_0: flow_9_14_0_0 - 1000 edge_9_14_0_0 <= 0
 inactive_no_flow_9_15_0_0: flow_9_15_0_0 - 1000 edge_9_15_0_0 <= 0
 inactive_no_flow_9_16_0_0: flow_9_16_0_0 - 1000 edge_9_16_0_0 <= 0
 inactive_no_flow_9_17_0_0: flow_9_17_0_0 - 1000 edge_9_17_0_0 <= 0
 inactive_no_flow_9_18_0_0: flow_9_18_0_0 - 1000 edge_9_18_0_0 <= 0
 inactive_no_flow_10_1_0_0: flow_10_1_0_0 - 1000 edge_10_1_0_0 <= 0
 inactive_no_flow_10_2_0_0: flow_10_2_0_0 - 1000 edge_10_2_0_0 <= 0
 inactive_no_flow_10_4_0_0: flow_10_4_0_0 - 1000 edge_10_4_0_0 <= 0
 inactive_no_flow_10_5_0_0: flow_10_5_0_0 - 1000 edge_10_5_0_0 <= 0
 inactive_no_flow_10_6_0_0: flow_10_6_0_0 - 1000 edge_10_6_0_0 <= 0
 inactive_no_flow_10_7_0_0: flow_10_7_0_0 - 1000 edge_10_7_0_0 <= 0
 inactive_no_flow_10_8_0_0: flow_10_8_0_0 - 1000 edge_10_8_0_0 <= 0
 inactive_no_flow_10_9_0_0: flow_10_9_0_0 - 1000 edge_10_9_0_0 <= 0
 inactive_no_flow_10_12_0_0: flow_10_12_0_0 - 1000 edge_10_12_0_0 <= 0
 inactive_no_flow_10_13_0_0: flow_10_13_0_0 - 1000 edge_10_13_0_0 <= 0
 inactive_no_flow_10_14_0_0: flow_10_14_0_0 - 1000 edge_10_14_0_0 <= 0
 inactive_no_flow_10_15_0_0: flow_10_15_0_0 - 1000 edge_10_15_0_0 <= 0
 inactive_no_flow_10_16_0_0: flow_10_16_0_0 - 1000 edge_10_16_0_0 <= 0
 inactive_no_flow_10_17_0_0: flow_10_17_0_0 - 1000 edge_10_17_0_0 <= 0
 inactive_no_flow_10_18_0_0: flow_10_18_0_0 - 1000 edge_10_18_0_0 <= 0
 inactive_no_flow_12_1_0_0: flow_12_1_0_0 - 1000 edge_12_1_0_0 <= 0
 inactive_no_flow_12_2_0_0: flow_12_2_0_0 - 1000 edge_12_2_0_0 <= 0
 inactive_no_flow_12_4_0_0: flow_12_4_0_0 - 1000 edge_12_4_0_0 <= 0
 inactive_no_flow_12_6_0_0: flow_12_6_0_0 - 1000 edge_12_6_0_0 <= 0
 inactive_no_flow_12_7_0_0: flow_12_7_0_0 - 1000 edge_12_7_0_0 <= 0
 inactive_no_flow_12_8_0_0: flow_12_8_0_0 - 1000 edge_12_8_0_0 <= 0
 inactive_no_flow_12_9_0_0: flow_12_9_0_0 - 1000 edge_12_9_0_0 <= 0
 inactive_no_flow_12_10_0_0: flow_12_10_0_0 - 1000 edge_12_10_0_0 <= 0
 inactive_no_flow_12_13_0_0: flow_12_13_0_0 - 1000 edge_12_13_0_0 <= 0
 inactive_no_flow_12_14_0_0: flow_12_14_0_0 - 1000 edge_12_14_0_0 <= 0
 inactive_no_flow_12_15_0_0: flow_12_15_0_0 - 1000 edge_12_15_0_0 <= 0
 inactive_no_flow_12_16_0_0: flow_12_16_0_0 - 1000 edge_12_16_0_0 <= 0
 inactive_no_flow_12_17_0_0: flow_12_17_0_0 - 1000 edge_12_17_0_0 <= 0
 inactive_no_flow_12_18_0_0: flow_12_18_0_0 - 1000 edge_12_18_0_0 <= 0
 inactive_no_flow_13_1_0_0: flow_13_1_0_0 - 1000 edge_13_1_0_0 <= 0
 inactive_no_flow_13_2_0_0: flow_13_2_0_0 - 1000 edge_13_2_0_0 <= 0
 inactive_no_flow_13_4_0_0: flow_13_4_0_0 - 1000 edge_13_4_0_0 <= 0
 inactive_no_flow_13_5_0_0: flow_13_5_0_0 - 1000 edge_13_5_0_0 <= 0
 inactive_no_flow_13_6_0_0: flow_13_6_0_0 - 1000 edge_13_6_0_0 <= 0
 inactive_no_flow_13_7_0_0: flow_13_7_0_0 - 1000 edge_13_7_0_0 <= 0
 inactive_no_flow_13_8_0_0: flow_13_8_0_0 - 1000 edge_13_8_0_0 <= 0
 inactive_no_flow_13_9_0_0: flow_13_9_0_0 - 1000 edge_13_9_0_0 <= 0
 inactive_no_flow_13_10_0_0: flow_13_10_0_0 - 1000 edge_13_10_0_0 <= 0
 inactive_no_flow_13_12_0_0: flow_13_12_0_0 - 1000 edge_13_12_0_0 <= 0
 inactive_no_flow_13_14_0_0: flow_13_14_0_0 - 1000 edge_13_14_0_0 <= 0
 inactive_no_flow_13_15_0_0: flow_13_15_0_0 - 1000 edge_13_15_0_0 <= 0
 inactive_no_flow_13_16_0_0: flow_13_16_0_0 - 1000 edge_13_16_0_0 <= 0
 inactive_no_flow_13_17_0_0: flow_13_17_0_0 - 1000 edge_13_17_0_0 <= 0
 inactive_no_flow_13_18_0_0: flow_13_18_0_0 - 1000 edge_13_18_0_0 <= 0
 inactive_no_flow_14_1_0_0: flow_14_1_0_0 - 1000 edge_14_1_0_0 <= 0
 inactive_no_flow_14_4_0_0: flow_14_4_0_0 - 1000 edge_14_4_0_0 <= 0
 inactive_no_flow_14_7_0_0: flow_14_7_0_0 - 1000 edge_14_7_0_0 <= 0
 inactive_no_flow_14_8_0_0: flow_14_8_0_0 - 1000 edge_14_8_0_0 <= 0
 inactive_no_flow_14_9_0_0: flow_14_9_0_0 - 1000 edge_14_9_0_0 <= 0
 inactive_no_flow_14_10_0_0: flow_14_10_0_0 - 1000 edge_14_10_0_0 <= 0
 inactive_no_flow_14_12_0_0: flow_14_12_0_0 - 1000 edge_14_12_0_0 <= 0
 inactive_no_flow_14_13_0_0: flow_14_13_0_0 - 1000 edge_14_13_0_0 <= 0
 inactive_no_flow_14_15_0_0: flow_14_15_0_0 - 1000 edge_14_15_0_0 <= 0
 inactive_no_flow_14_17_0_0: flow_14_17_0_0 - 1000 edge_14_17_0_0 <= 0
 inactive_no_flow_14_18_0_0: flow_14_18_0_0 - 1000 edge_14_18_0_0 <= 0
 inactive_no_flow_15_4_0_0: flow_15_4_0_0 - 1000 edge_15_4_0_0 <= 0
 inactive_no_flow_15_9_0_0: flow_15_9_0_0 - 1000 edge_15_9_0_0 <= 0
 inactive_no_flow_15_12_0_0: flow_15_12_0_0 - 1000 edge_15_12_0_0 <= 0
 inactive_no_flow_15_13_0_0: flow_15_13_0_0 - 1000 edge_15_13_0_0 <= 0
 inactive_no_flow_15_14_0_0: flow_15_14_0_0 - 1000 edge_15_14_0_0 <= 0
 inactive_no_flow_15_16_0_0: flow_15_16_0_0 - 1000 edge_15_16_0_0 <= 0
 inactive_no_flow_15_17_0_0: flow_15_17_0_0 - 1000 edge_15_17_0_0 <= 0
 inactive_no_flow_15_18_0_0: flow_15_18_0_0 - 1000 edge_15_18_0_0 <= 0
 inactive_no_flow_16_4_0_0: flow_16_4_0_0 - 1000 edge_16_4_0_0 <= 0
 inactive_no_flow_16_7_0_0: flow_16_7_0_0 - 1000 edge_16_7_0_0 <= 0
 inactive_no_flow_16_8_0_0: flow_16_8_0_0 - 1000 edge_16_8_0_0 <= 0
 inactive_no_flow_16_13_0_0: flow_16_13_0_0 - 1000 edge_16_13_0_0 <= 0
 inactive_no_flow_16_15_0_0: flow_16_15_0_0 - 1000 edge_16_15_0_0 <= 0
 inactive_no_flow_16_18_0_0: flow_16_18_0_0 - 1000 edge_16_18_0_0 <= 0
 inactive_no_flow_17_1_0_0: flow_17_1_0_0 - 1000 edge_17_1_0_0 <= 0
 inactive_no_flow_17_2_0_0: flow_17_2_0_0 - 1000 edge_17_2_0_0 <= 0
 inactive_no_flow_17_4_0_0: flow_17_4_0_0 - 1000 edge_17_4_0_0 <= 0
 inactive_no_flow_17_5_0_0: flow_17_5_0_0 - 1000 edge_17_5_0_0 <= 0
 inactive_no_flow_17_6_0_0: flow_17_6_0_0 - 1000 edge_17_6_0_0 <= 0
 inactive_no_flow_17_7_0_0: flow_17_7_0_0 - 1000 edge_17_7_0_0 <= 0
 inactive_no_flow_17_8_0_0: flow_17_8_0_0 - 1000 edge_17_8_0_0 <= 0
 inactive_no_flow_17_9_0_0: flow_17_9_0_0 - 1000 edge_17_9_0_0 <= 0
 inactive_no_flow_17_10_0_0: flow_17_10_0_0 - 1000 edge_17_10_0_0 <= 0
 inactive_no_flow_17_12_0_0: flow_17_12_0_0 - 1000 edge_17_12_0_0 <= 0
 inactive_no_flow_17_13_0_0: flow_17_13_0_0 - 1000 edge_17_13_0_0 <= 0
 inactive_no_flow_17_14_0_0: flow_17_14_0_0 - 1000 edge_17_14_0_0 <= 0
 inactive_no_flow_17_15_0_0: flow_17_15_0_0 - 1000 edge_17_15_0_0 <= 0
 inactive_no_flow_17_16_0_0: flow_17_16_0_0 - 1000 edge_17_16_0_0 <= 0
 inactive_no_flow_17_18_0_0: flow_17_18_0_0 - 1000 edge_17_18_0_0 <= 0
 inactive_no_flow_18_17_0_0: flow_18_17_0_0 - 1000 edge_18_17_0_0 <= 0
Bounds
Binaries
 edge_0_1_0_0 edge_0_2_0_0 edge_0_4_0_0 edge_0_5_0_0 edge_0_6_0_0
 edge_0_7_0_0 edge_0_8_0_0 edge_0_9_0_0 edge_0_10_0_0 edge_0_12_0_0
 edge_0_13_0_0 edge_0_14_0_0 edge_0_16_0_0 edge_0_17_0_0 edge_1_2_0_0
 edge_1_4_0_0 edge_1_6_0_0 edge_1_7_0_0 edge_1_8_0_0 edge_1_9_0_0
 edge_1_10_0_0 edge_1_12_0_0 edge_1_13_0_0 edge_1_14_0_0 edge_1_15_0_0
 edge_1_17_0_0 edge_1_18_0_0 edge_2_1_0_0 edge_2_3_0_0 edge_2_4_0_0
 edge_2_5_0_0 edge_2_6_0_0 edge_2_7_0_0 edge_2_8_0_0 edge_2_9_0_0
 edge_2_10_0_0 edge_2_12_0_0 edge_2_13_0_0 edge_2_14_0_0 edge_2_15_0_0
 edge_2_17_0_0 edge_2_18_0_0 edge_3_2_0_0 edge_3_4_0_0 edge_3_5_0_0
 edge_3_6_0_0 edge_3_7_0_0 edge_3_8_0_0 edge_3_15_0_0 edge_4_1_0_0
 edge_4_2_0_0 edge_4_3_0_0 edge_4_5_0_0 edge_4_6_0_0 edge_4_7_0_0
 edge_4_8_0_0 edge_4_9_0_0 edge_4_10_0_0 edge_4_12_0_0 edge_4_13_0_0
 edge_4_14_0_0 edge_4_15_0_0 edge_4_16_0_0 edge_4_17_0_0 edge_4_18_0_0
 edge_5_2_0_0 edge_5_3_0_0 edge_5_4_0_0 edge_5_6_0_0 edge_5_7_0_0
 edge_5_8_0_0 edge_5_9_0_0 edge_5_14_0_0 edge_5_15_0_0 edge_5_17_0_0
 edge_6_1_0_0 edge_6_2_0_0 edge_6_3_0_0 edge_6_4_0_0 edge_6_5_0_0
 edge_6_7_0_0 edge_6_8_0_0 edge_6_9_0_0 edge_6_10_0_0 edge_6_12_0_0
 edge_6_13_0_0 edge_6_14_0_0 edge_6_15_0_0 edge_6_17_0_0 edge_6_18_0_0
 edge_7_1_0_0 edge_7_2_0_0 edge_7_3_0_0 edge_7_4_0_0 edge_7_5_0_0
 edge_7_6_0_0 edge_7_8_0_0 edge_7_9_0_0 edge_7_10_0_0 edge_7_12_0_0
 edge_7_13_0_0 edge_7_14_0_0 edge_7_15_0_0 edge_7_16_0_0 edge_7_17_0_0
 edge_7_18_0_0 edge_8_1_0_0 edge_8_2_0_0 edge_8_4_0_0 edge_8_5_0_0
 edge_8_6_0_0 edge_8_7_0_0 edge_8_9_0_0 edge_8_10_0_0 edge_8_12_0_0
 edge_8_13_0_0 edge_8_14_0_0 edge_8_15_0_0 edge_8_16_0_0 edge_8_17_0_0
 edge_8_18_0_0 edge_9_1_0_0 edge_9_2_0_0 edge_9_4_0_0 edge_9_5_0_0
 edge_9_6_0_0 edge_9_7_0_0 edge_9_8_0_0 edge_9_10_0_0 edge_9_12_0_0
 edge_9_13_0_0 edge_9_14_0_0 edge_9_15_0_0 edge_9_16_0_0 edge_9_17_0_0
 edge_9_18_0_0 edge_10_1_0_0 edge_10_2_0_0 edge_10_4_0_0 edge_10_5_0_0
 edge_10_6_0_0 edge_10_7_0_0 edge_10_8_0_0 edge_10_9_0_0 edge_10_12_0_0
 edge_10_13_0_0 edge_10_14_0_0 edge_10_15_0_0 edge_10_16_0_0 edge_10_17_0_0
 edge_10_18_0_0 edge_12_1_0_0 edge_12_2_0_0 edge_12_4_0_0 edge_12_6_0_0
 edge_12_7_0_0 edge_12_8_0_0 edge_12_9_0_0 edge_12_10_0_0 edge_12_13_0_0
 edge_12_14_0_0 edge_12_15_0_0 edge_12_16_0_0 edge_12_17_0_0 edge_12_18_0_0
 edge_13_1_0_0 edge_13_2_0_0 edge_13_4_0_0 edge_13_5_0_0 edge_13_6_0_0
 edge_13_7_0_0 edge_13_8_0_0 edge_13_9_0_0 edge_13_10_0_0 edge_13_12_0_0
 edge_13_14_0_0 edge_13_15_0_0 edge_13_16_0_0 edge_13_17_0_0 edge_13_18_0_0
 edge_14_1_0_0 edge_14_4_0_0 edge_14_7_0_0 edge_14_8_0_0 edge_14_9_0_0
 edge_14_10_0_0 edge_14_12_0_0 edge_14_13_0_0 edge_14_15_0_0 edge_14_17_0_0
 edge_14_18_0_0 edge_15_4_0_0 edge_15_9_0_0 edge_15_12_0_0 edge_15_13_0_0
 edge_15_14_0_0 edge_15_16_0_0 edge_15_17_0_0 edge_15_18_0_0 edge_16_4_0_0
 edge_16_7_0_0 edge_16_8_0_0 edge_16_13_0_0 edge_16_15_0_0 edge_16_18_0_0
 edge_17_1_0_0 edge_17_2_0_0 edge_17_4_0_0 edge_17_5_0_0 edge_17_6_0_0
 edge_17_7_0_0 edge_17_8_0_0 edge_17_9_0_0 edge_17_10_0_0 edge_17_12_0_0
 edge_17_13_0_0 edge_17_14_0_0 edge_17_15_0_0 edge_17_16_0_0 edge_17_18_0_0
 edge_18_17_0_0
End
